NAME:  br17
TYPE: ATSP
COMMENT: 4 city problem (Repetto)
DIMENSION:  4
EDGE_WEIGHT_TYPE: EXPLICIT
EDGE_WEIGHT_FORMAT: FULL_MATRIX 
EDGE_WEIGHT_SECTION
9999 23 41 3
12 9999 31 12
45 1  9999 45
90 12 6 9999
EOF
